*SENSE:Minimize
NAME          MODEL
ROWS
 N  OBJ
 L  C0000000
 L  C0000001
 G  C0000002
COLUMNS
    MARK      'MARKER'                 'INTORG'
    X0000000  C0000001   1.000000000000e+00
    X0000000  C0000002   1.000000000000e+00
    MARK      'MARKER'                 'INTEND'
    MARK      'MARKER'                 'INTORG'
    X0000001  C0000001  -1.000000000000e+00
    X0000001  C0000002  -1.000000000000e+00
    MARK      'MARKER'                 'INTEND'
    MARK      'MARKER'                 'INTORG'
    X0000002  C0000000   1.000000000000e+00
    X0000002  C0000001  -1.000000000000e+00
    X0000002  C0000002   1.000000000000e+00
    X0000002  OBJ        1.000000000000e+00
    MARK      'MARKER'                 'INTEND'
RHS
    RHS       C0000000   0.000000000000e+00
    RHS       C0000001  -1.576051207247e-06
    RHS       C0000002  -1.576051207247e-06
BOUNDS
 LO BND       X0000000  -2.048390590528e+09
 UP BND       X0000000   1.832074806750e+09
 LO BND       X0000001  -1.212453746212e+09
 UP BND       X0000001   9.920673770851e+07
 FR BND       X0000002
ENDATA
